p cnf 7230 17
-2162 -2163 0
-1608 2155 0
-634 -1726 -2160 0
634 -2161 0
2160 2161 0
2158 2159 0
1614 -2159 0
-1614 -2158 0
-1610 2157 0
2156 -2157 0
1610 -2156 0
1726 -2161 0
-1618 -1622 2163 0
-2154 -2155 0
2154 2155 0
1622 -2163 0
1618 -2163 0
